NAME : undefined
TYPE : HCP TOUR
COMMENT : 100-node graph, total time 250.27 seconds
DIMENSION : 100
EDGE_DATA_FORMAT : EDGE_LIST
EDGE_DATA_SECTION
41
5
31
35
51
26
85
52
82
18
98
61
39
50
84
16
80
1
58
93
27
48
11
70
53
88
62
19
100
36
97
44
94
23
81
37
96
57
56
4
65
46
3
69
54
10
89
24
42
49
68
64
13
90
21
79
32
92
43
74
47
22
12
40
8
20
59
14
71
91
73
63
99
66
45
33
6
9
38
67
30
2
34
55
7
29
77
78
95
87
15
75
76
17
28
72
83
86
25
60
-1
EOF
